Maximize
  4.6991758415013688e-04 Z_12_0_0 + 0.0295752195646367 Z_12_0_1
   + 0.5427065046844817 Z_12_0_2 + 0.0143999035096267 Z_12_0_3
   + 4.5855248009857297e-04 Z_482_0_0 + 0.0482471052415448 Z_482_0_1
   + 0.6495274365716348 Z_482_0_2 + 0.00406780677972415 Z_482_0_3
   + 0.0150268045675482 Z_209_0_0 + 0.0443222493359426 Z_209_0_1
   + 0.2085917736569296 Z_209_0_2 + 0.0439248168603335 Z_209_0_3
   + 0.000485182 Z_493_0_0 + 0.0322823847529167 Z_493_0_1
   + 0.8122099162606261 Z_493_0_2 + 0.0112837950727668 Z_493_0_3 + [
   0.00546875 Z_12_0_0 * Z_482_0_0
   + 0.0183673469387755 Z_12_0_0 * Z_493_0_0
   + 0.00546875 Z_12_0_1 * Z_482_0_1
   + 0.0183673469387755 Z_12_0_1 * Z_493_0_1
   + 0.00546875 Z_12_0_2 * Z_482_0_2
   + 0.0183673469387755 Z_12_0_2 * Z_493_0_2
   + 0.00546875 Z_12_0_3 * Z_482_0_3
   + 0.0183673469387755 Z_12_0_3 * Z_493_0_3 ] / 2 
Subject To
 constraint1_120: Z_12_0_0 + Z_12_0_1 + Z_12_0_2 + Z_12_0_3 <= 1
 constraint1_4820: Z_482_0_0 + Z_482_0_1 + Z_482_0_2 + Z_482_0_3 <= 1
 constraint1_2090: Z_209_0_0 + Z_209_0_1 + Z_209_0_2 + Z_209_0_3 <= 1
 constraint1_4930: Z_493_0_0 + Z_493_0_1 + Z_493_0_2 + Z_493_0_3 <= 1
 constraint2_120: Z_12_0_0 <= 1
 constraint2_121: Z_12_0_1 <= 1
 constraint2_122: Z_12_0_2 <= 1
 constraint2_123: Z_12_0_3 <= 1
 constraint2_4820: Z_482_0_0 <= 1
 constraint2_4821: Z_482_0_1 <= 1
 constraint2_4822: Z_482_0_2 <= 1
 constraint2_4823: Z_482_0_3 <= 1
 constraint2_2090: Z_209_0_0 <= 1
 constraint2_2091: Z_209_0_1 <= 1
 constraint2_2092: Z_209_0_2 <= 1
 constraint2_2093: Z_209_0_3 <= 1
 constraint2_4930: Z_493_0_0 <= 1
 constraint2_4931: Z_493_0_1 <= 1
 constraint2_4932: Z_493_0_2 <= 1
 constraint2_4933: Z_493_0_3 <= 1
Bounds
Binaries
 Z_12_0_0 Z_12_0_1 Z_12_0_2 Z_12_0_3 Z_482_0_0 Z_482_0_1 Z_482_0_2
 Z_482_0_3 Z_209_0_0 Z_209_0_1 Z_209_0_2 Z_209_0_3 Z_493_0_0 Z_493_0_1
 Z_493_0_2 Z_493_0_3
End
